114
0 47 7 10 66 3 108 82 43 23 
42 86 112 17 97 29 77 89 48 53 
113 34 109 98 95 83 61 68 12 15 
2 25 64 24 40 4 81 44 84 99 
32 8 69 45 16 27 79 37 70 30 
111 80 75 36 50 5 74 55 107 103 
94 73 106 65 101 21 92 72 110 20 
33 46 39 13 35 62 6 41 58 60 
31 9 57 105 54 85 1 19 11 88 
67 90 28 56 38 18 96 76 49 52 
104 87 26 51 71 63 22 59 14 100 
91 93 78 102 
